80 8
33 73
86 59
30 75
100 10
100 25
47 94
23 44
60 62
76 59
26 90
65 35
17 66
4 93
88 50
67 21
19 47
53 62
26 60
20 89
84 50
91 72
88 84
88 85
4 12
62 91
41 48
16 72
62 24
55 39
90 8
83 90
54 86
84 3
90 73
55 22
48 15
3 44
18 39
29 70
36 55
31 58
42 75
61 98
30 73
39 23
5 63
72 81
49 83
67 10
99 100
6 44
55 47
86 31
95 9
98 61
5 33
55 49
32 91
86 67
90 66
72 46
87 56
89 63
11 48
88 81
95 18
31 70
87 83
91 90
35 17
61 53
99 20
77 34
89 81
17 37
10 57
91 9
12 79
57 37
38 8
462 540
723 838
618 741
637 718
494 582
469 578
637 736
508 590
